N_CLOUD_REGIONS = 3;  % e-dc-1, core-dc-1, core-dc-2
N_ATTRIBUTES = 4; 
N_METRICS = 2;

CUST_TYPE = GOLD;

W_METRICS = [0.9, 0.1];  
W_ATTRIBUTES = [0, 0.9, 0.05, 0.05];

capabilities = [| 0, 0, 1, 1
                | 1, 0, 1, 1
                | 1, 1, 0, 1 |]; 

utilization = [| 0.05, 0.9
               | 0.1, 0.5
               | 0.8, 0.98 |]; 
